--------------------------------------------------
s SATISFIABLE
benchmarks_SAT/INST_36x36/0/inst36x36_0_0.cnf : 3751 ms.
--------------------------------------------------
s SATISFIABLE
benchmarks_SAT/INST_36x36/0/inst36x36_0_10.cnf : 3572 ms.
--------------------------------------------------
s SATISFIABLE
benchmarks_SAT/INST_36x36/0/inst36x36_0_11.cnf : 3556 ms.
--------------------------------------------------
s SATISFIABLE
benchmarks_SAT/INST_36x36/0/inst36x36_0_12.cnf : 3549 ms.
--------------------------------------------------
s SATISFIABLE
benchmarks_SAT/INST_36x36/0/inst36x36_0_13.cnf : 3525 ms.
--------------------------------------------------
s SATISFIABLE
benchmarks_SAT/INST_36x36/0/inst36x36_0_14.cnf : 3488 ms.
--------------------------------------------------
s SATISFIABLE
benchmarks_SAT/INST_36x36/0/inst36x36_0_15.cnf : 3481 ms.
--------------------------------------------------
s SATISFIABLE
benchmarks_SAT/INST_36x36/0/inst36x36_0_16.cnf : 3507 ms.
--------------------------------------------------
s SATISFIABLE
benchmarks_SAT/INST_36x36/0/inst36x36_0_17.cnf : 3657 ms.
--------------------------------------------------
s SATISFIABLE
benchmarks_SAT/INST_36x36/0/inst36x36_0_18.cnf : 3509 ms.
--------------------------------------------------
s SATISFIABLE
benchmarks_SAT/INST_36x36/0/inst36x36_0_19.cnf : 3478 ms.
--------------------------------------------------
s SATISFIABLE
benchmarks_SAT/INST_36x36/0/inst36x36_0_1.cnf : 3489 ms.
--------------------------------------------------
s SATISFIABLE
benchmarks_SAT/INST_36x36/0/inst36x36_0_20.cnf : 3514 ms.
--------------------------------------------------
s SATISFIABLE
benchmarks_SAT/INST_36x36/0/inst36x36_0_21.cnf : 3500 ms.
--------------------------------------------------
s SATISFIABLE
benchmarks_SAT/INST_36x36/0/inst36x36_0_22.cnf : 3466 ms.
--------------------------------------------------
s SATISFIABLE
benchmarks_SAT/INST_36x36/0/inst36x36_0_23.cnf : 3484 ms.
--------------------------------------------------
s SATISFIABLE
benchmarks_SAT/INST_36x36/0/inst36x36_0_24.cnf : 3468 ms.
--------------------------------------------------
s SATISFIABLE
benchmarks_SAT/INST_36x36/0/inst36x36_0_25.cnf : 3488 ms.
--------------------------------------------------
s SATISFIABLE
benchmarks_SAT/INST_36x36/0/inst36x36_0_26.cnf : 3429 ms.
--------------------------------------------------
s SATISFIABLE
benchmarks_SAT/INST_36x36/0/inst36x36_0_27.cnf : 3428 ms.
--------------------------------------------------
s SATISFIABLE
benchmarks_SAT/INST_36x36/0/inst36x36_0_28.cnf : 3437 ms.
--------------------------------------------------
s SATISFIABLE
benchmarks_SAT/INST_36x36/0/inst36x36_0_29.cnf : 3609 ms.
--------------------------------------------------
s SATISFIABLE
benchmarks_SAT/INST_36x36/0/inst36x36_0_2.cnf : 3417 ms.
--------------------------------------------------
s SATISFIABLE
benchmarks_SAT/INST_36x36/0/inst36x36_0_30.cnf : 3426 ms.
--------------------------------------------------
s SATISFIABLE
benchmarks_SAT/INST_36x36/0/inst36x36_0_31.cnf : 3814 ms.
--------------------------------------------------
s SATISFIABLE
benchmarks_SAT/INST_36x36/0/inst36x36_0_32.cnf : 3764 ms.
--------------------------------------------------
s SATISFIABLE
benchmarks_SAT/INST_36x36/0/inst36x36_0_33.cnf : 3420 ms.
--------------------------------------------------
s SATISFIABLE
benchmarks_SAT/INST_36x36/0/inst36x36_0_34.cnf : 3467 ms.
--------------------------------------------------
s SATISFIABLE
benchmarks_SAT/INST_36x36/0/inst36x36_0_35.cnf : 3436 ms.
--------------------------------------------------
s SATISFIABLE
benchmarks_SAT/INST_36x36/0/inst36x36_0_36.cnf : 3447 ms.
--------------------------------------------------
s SATISFIABLE
benchmarks_SAT/INST_36x36/0/inst36x36_0_37.cnf : 3424 ms.
--------------------------------------------------
s SATISFIABLE
benchmarks_SAT/INST_36x36/0/inst36x36_0_38.cnf : 3430 ms.
--------------------------------------------------
s SATISFIABLE
benchmarks_SAT/INST_36x36/0/inst36x36_0_39.cnf : 3509 ms.
--------------------------------------------------
s SATISFIABLE
benchmarks_SAT/INST_36x36/0/inst36x36_0_3.cnf : 3426 ms.
--------------------------------------------------
s SATISFIABLE
benchmarks_SAT/INST_36x36/0/inst36x36_0_40.cnf : 3648 ms.
--------------------------------------------------
s SATISFIABLE
benchmarks_SAT/INST_36x36/0/inst36x36_0_41.cnf : 3780 ms.
--------------------------------------------------
s SATISFIABLE
benchmarks_SAT/INST_36x36/0/inst36x36_0_42.cnf : 3810 ms.
--------------------------------------------------
s SATISFIABLE
benchmarks_SAT/INST_36x36/0/inst36x36_0_43.cnf : 3637 ms.
--------------------------------------------------
s SATISFIABLE
benchmarks_SAT/INST_36x36/0/inst36x36_0_44.cnf : 3869 ms.
--------------------------------------------------
s SATISFIABLE
benchmarks_SAT/INST_36x36/0/inst36x36_0_45.cnf : 3449 ms.
--------------------------------------------------
s SATISFIABLE
benchmarks_SAT/INST_36x36/0/inst36x36_0_46.cnf : 3387 ms.
--------------------------------------------------
s SATISFIABLE
benchmarks_SAT/INST_36x36/0/inst36x36_0_47.cnf : 3430 ms.
--------------------------------------------------
s SATISFIABLE
benchmarks_SAT/INST_36x36/0/inst36x36_0_48.cnf : 3380 ms.
--------------------------------------------------
s SATISFIABLE
benchmarks_SAT/INST_36x36/0/inst36x36_0_49.cnf : 3414 ms.
--------------------------------------------------
s SATISFIABLE
benchmarks_SAT/INST_36x36/0/inst36x36_0_4.cnf : 3406 ms.
--------------------------------------------------
s SATISFIABLE
benchmarks_SAT/INST_36x36/0/inst36x36_0_50.cnf : 3404 ms.
--------------------------------------------------
s SATISFIABLE
benchmarks_SAT/INST_36x36/0/inst36x36_0_51.cnf : 3407 ms.
--------------------------------------------------
s SATISFIABLE
benchmarks_SAT/INST_36x36/0/inst36x36_0_52.cnf : 3419 ms.
--------------------------------------------------
s SATISFIABLE
benchmarks_SAT/INST_36x36/0/inst36x36_0_53.cnf : 3649 ms.
--------------------------------------------------
s SATISFIABLE
benchmarks_SAT/INST_36x36/0/inst36x36_0_54.cnf : 3612 ms.
--------------------------------------------------
s SATISFIABLE
benchmarks_SAT/INST_36x36/0/inst36x36_0_55.cnf : 3716 ms.
--------------------------------------------------
s SATISFIABLE
benchmarks_SAT/INST_36x36/0/inst36x36_0_56.cnf : 3361 ms.
--------------------------------------------------
s SATISFIABLE
benchmarks_SAT/INST_36x36/0/inst36x36_0_57.cnf : 3599 ms.
--------------------------------------------------
s SATISFIABLE
benchmarks_SAT/INST_36x36/0/inst36x36_0_58.cnf : 3471 ms.
--------------------------------------------------
s SATISFIABLE
benchmarks_SAT/INST_36x36/0/inst36x36_0_59.cnf : 3756 ms.
--------------------------------------------------
s SATISFIABLE
benchmarks_SAT/INST_36x36/0/inst36x36_0_5.cnf : 3664 ms.
--------------------------------------------------
s SATISFIABLE
benchmarks_SAT/INST_36x36/0/inst36x36_0_60.cnf : 3351 ms.
--------------------------------------------------
s SATISFIABLE
benchmarks_SAT/INST_36x36/0/inst36x36_0_61.cnf : 3392 ms.
--------------------------------------------------
s SATISFIABLE
benchmarks_SAT/INST_36x36/0/inst36x36_0_62.cnf : 3742 ms.
--------------------------------------------------
s SATISFIABLE
benchmarks_SAT/INST_36x36/0/inst36x36_0_63.cnf : 3647 ms.
--------------------------------------------------
s SATISFIABLE
benchmarks_SAT/INST_36x36/0/inst36x36_0_64.cnf : 3970 ms.
--------------------------------------------------
s SATISFIABLE
benchmarks_SAT/INST_36x36/0/inst36x36_0_65.cnf : 3434 ms.
--------------------------------------------------
s SATISFIABLE
benchmarks_SAT/INST_36x36/0/inst36x36_0_66.cnf : 3623 ms.
--------------------------------------------------
s SATISFIABLE
benchmarks_SAT/INST_36x36/0/inst36x36_0_67.cnf : 3431 ms.
--------------------------------------------------
s SATISFIABLE
benchmarks_SAT/INST_36x36/0/inst36x36_0_68.cnf : 3732 ms.
--------------------------------------------------
s SATISFIABLE
benchmarks_SAT/INST_36x36/0/inst36x36_0_69.cnf : 3539 ms.
--------------------------------------------------
s SATISFIABLE
benchmarks_SAT/INST_36x36/0/inst36x36_0_6.cnf : 3435 ms.
--------------------------------------------------
s SATISFIABLE
benchmarks_SAT/INST_36x36/0/inst36x36_0_70.cnf : 4015 ms.
--------------------------------------------------
s SATISFIABLE
benchmarks_SAT/INST_36x36/0/inst36x36_0_71.cnf : 3929 ms.
--------------------------------------------------
s SATISFIABLE
benchmarks_SAT/INST_36x36/0/inst36x36_0_72.cnf : 3346 ms.
--------------------------------------------------
s SATISFIABLE
benchmarks_SAT/INST_36x36/0/inst36x36_0_73.cnf : 3322 ms.
--------------------------------------------------
s SATISFIABLE
benchmarks_SAT/INST_36x36/0/inst36x36_0_74.cnf : 3316 ms.
--------------------------------------------------
s SATISFIABLE
benchmarks_SAT/INST_36x36/0/inst36x36_0_75.cnf : 3317 ms.
--------------------------------------------------
s SATISFIABLE
benchmarks_SAT/INST_36x36/0/inst36x36_0_76.cnf : 3319 ms.
--------------------------------------------------
s SATISFIABLE
benchmarks_SAT/INST_36x36/0/inst36x36_0_77.cnf : 3355 ms.
--------------------------------------------------
s SATISFIABLE
benchmarks_SAT/INST_36x36/0/inst36x36_0_78.cnf : 3335 ms.
--------------------------------------------------
s SATISFIABLE
benchmarks_SAT/INST_36x36/0/inst36x36_0_79.cnf : 3330 ms.
--------------------------------------------------
s SATISFIABLE
benchmarks_SAT/INST_36x36/0/inst36x36_0_7.cnf : 3360 ms.
--------------------------------------------------
s SATISFIABLE
benchmarks_SAT/INST_36x36/0/inst36x36_0_80.cnf : 3302 ms.
--------------------------------------------------
s SATISFIABLE
benchmarks_SAT/INST_36x36/0/inst36x36_0_81.cnf : 3337 ms.
--------------------------------------------------
s SATISFIABLE
benchmarks_SAT/INST_36x36/0/inst36x36_0_82.cnf : 3336 ms.
--------------------------------------------------
s SATISFIABLE
benchmarks_SAT/INST_36x36/0/inst36x36_0_83.cnf : 3367 ms.
--------------------------------------------------
s SATISFIABLE
benchmarks_SAT/INST_36x36/0/inst36x36_0_84.cnf : 3500 ms.
--------------------------------------------------
s SATISFIABLE
benchmarks_SAT/INST_36x36/0/inst36x36_0_85.cnf : 3636 ms.
--------------------------------------------------
s SATISFIABLE
benchmarks_SAT/INST_36x36/0/inst36x36_0_86.cnf : 3468 ms.
--------------------------------------------------
s SATISFIABLE
benchmarks_SAT/INST_36x36/0/inst36x36_0_87.cnf : 3368 ms.
--------------------------------------------------
s SATISFIABLE
benchmarks_SAT/INST_36x36/0/inst36x36_0_88.cnf : 3504 ms.
--------------------------------------------------
s SATISFIABLE
benchmarks_SAT/INST_36x36/0/inst36x36_0_89.cnf : 3362 ms.
--------------------------------------------------
s SATISFIABLE
benchmarks_SAT/INST_36x36/0/inst36x36_0_8.cnf : 3320 ms.
--------------------------------------------------
s SATISFIABLE
benchmarks_SAT/INST_36x36/0/inst36x36_0_90.cnf : 3348 ms.
--------------------------------------------------
s SATISFIABLE
benchmarks_SAT/INST_36x36/0/inst36x36_0_91.cnf : 3339 ms.
--------------------------------------------------
s SATISFIABLE
benchmarks_SAT/INST_36x36/0/inst36x36_0_92.cnf : 3537 ms.
--------------------------------------------------
s SATISFIABLE
benchmarks_SAT/INST_36x36/0/inst36x36_0_93.cnf : 3357 ms.
--------------------------------------------------
s SATISFIABLE
benchmarks_SAT/INST_36x36/0/inst36x36_0_94.cnf : 3344 ms.
--------------------------------------------------
s SATISFIABLE
benchmarks_SAT/INST_36x36/0/inst36x36_0_95.cnf : 3434 ms.
--------------------------------------------------
s SATISFIABLE
benchmarks_SAT/INST_36x36/0/inst36x36_0_96.cnf : 3726 ms.
--------------------------------------------------
s SATISFIABLE
benchmarks_SAT/INST_36x36/0/inst36x36_0_97.cnf : 3764 ms.
--------------------------------------------------
s SATISFIABLE
benchmarks_SAT/INST_36x36/0/inst36x36_0_98.cnf : 3720 ms.
--------------------------------------------------
s SATISFIABLE
benchmarks_SAT/INST_36x36/0/inst36x36_0_99.cnf : 3364 ms.
--------------------------------------------------
s SATISFIABLE
benchmarks_SAT/INST_36x36/0/inst36x36_0_9.cnf : 3365 ms.
